c *********************************
c * Circuit generated by BenCGen
c *
c * ALU_5
c *
c * Ports with 1 gate(s): 130
c * Ports with 2 gate(s): 431
c * Ports with 3 gate(s): 12
c * Ports with 4 gate(s): 168
c * Ports with 5 gate(s): 4
c * Ports with 16 gate(s): 10
c * Total gates: 755
c *********************************
p cnf 810 2732
1 26 0
-1 -26 0
1 -25 0
26 -25 0
-1 -26 25 0
1 -27 0
6 -27 0
-1 -6 27 0
-1 28 0
-6 28 0
1 6 -28 0
1 6 -29 0
-1 6 29 0
1 -6 29 0
-1 -6 -29 0
1 -30 0
-1 30 0
1 38 0
-1 -38 0
2 -43 0
7 -43 0
-2 -7 43 0
-2 44 0
-7 44 0
2 7 -44 0
2 7 -45 0
-2 7 45 0
2 -7 45 0
-2 -7 -45 0
2 -46 0
-2 46 0
2 54 0
-2 -54 0
3 -59 0
8 -59 0
-3 -8 59 0
-3 60 0
-8 60 0
3 8 -60 0
3 8 -61 0
-3 8 61 0
3 -8 61 0
-3 -8 -61 0
3 -62 0
-3 62 0
3 70 0
-3 -70 0
4 -75 0
9 -75 0
-4 -9 75 0
-4 76 0
-9 76 0
4 9 -76 0
4 9 -77 0
-4 9 77 0
4 -9 77 0
-4 -9 -77 0
4 -78 0
-4 78 0
4 86 0
-4 -86 0
5 -91 0
10 -91 0
-5 -10 91 0
-5 92 0
-10 92 0
5 10 -92 0
5 10 -93 0
-5 10 93 0
5 -10 93 0
-5 -10 -93 0
5 -94 0
-5 94 0
5 102 0
-5 -102 0
25 741 0
-25 -741 0
1 -547 0
6 -547 0
-1 -6 547 0
2 -548 0
6 -548 0
-2 -6 548 0
3 -549 0
6 -549 0
-3 -6 549 0
4 -550 0
6 -550 0
-4 -6 550 0
5 -551 0
6 -551 0
-5 -6 551 0
1 -552 0
7 -552 0
-1 -7 552 0
2 -553 0
7 -553 0
-2 -7 553 0
3 -554 0
7 -554 0
-3 -7 554 0
4 -555 0
7 -555 0
-4 -7 555 0
5 -556 0
7 -556 0
-5 -7 556 0
1 -557 0
8 -557 0
-1 -8 557 0
2 -558 0
8 -558 0
-2 -8 558 0
3 -559 0
8 -559 0
-3 -8 559 0
4 -560 0
8 -560 0
-4 -8 560 0
5 -561 0
8 -561 0
-5 -8 561 0
1 -562 0
9 -562 0
-1 -9 562 0
2 -563 0
9 -563 0
-2 -9 563 0
3 -564 0
9 -564 0
-3 -9 564 0
4 -565 0
9 -565 0
-4 -9 565 0
5 -566 0
9 -566 0
-5 -9 566 0
1 -567 0
10 -567 0
-1 -10 567 0
2 -568 0
10 -568 0
-2 -10 568 0
3 -569 0
10 -569 0
-3 -10 569 0
4 -570 0
10 -570 0
-4 -10 570 0
5 -571 0
10 -571 0
-5 -10 571 0
547 -32 0
-547 32 0
548 552 -577 0
-548 552 577 0
548 -552 577 0
-548 -552 -577 0
577 25 -48 0
-577 25 48 0
577 -25 48 0
-577 -25 -48 0
25 -578 0
577 -578 0
-25 -577 578 0
552 -579 0
548 -579 0
-552 -548 579 0
-578 576 0
-579 576 0
578 579 -576 0
549 553 -581 0
-549 553 581 0
549 -553 581 0
-549 -553 -581 0
581 576 -572 0
-581 576 572 0
581 -576 572 0
-581 -576 -572 0
576 -582 0
581 -582 0
-576 -581 582 0
553 -583 0
549 -583 0
-553 -549 583 0
-582 580 0
-583 580 0
582 583 -580 0
550 554 -585 0
-550 554 585 0
550 -554 585 0
-550 -554 -585 0
585 580 -573 0
-585 580 573 0
585 -580 573 0
-585 -580 -573 0
580 -586 0
585 -586 0
-580 -585 586 0
554 -587 0
550 -587 0
-554 -550 587 0
-586 584 0
-587 584 0
586 587 -584 0
551 555 -589 0
-551 555 589 0
551 -555 589 0
-551 -555 -589 0
589 584 -574 0
-589 584 574 0
589 -584 574 0
-589 -584 -574 0
584 -590 0
589 -590 0
-584 -589 590 0
555 -591 0
551 -591 0
-555 -551 591 0
-590 588 0
-591 588 0
590 591 -588 0
25 556 -593 0
-25 556 593 0
25 -556 593 0
-25 -556 -593 0
593 588 -575 0
-593 588 575 0
593 -588 575 0
-593 -588 -575 0
588 -594 0
593 -594 0
-588 -593 594 0
556 -595 0
25 -595 0
-556 -25 595 0
-594 592 0
-595 592 0
594 595 -592 0
572 557 -601 0
-572 557 601 0
572 -557 601 0
-572 -557 -601 0
601 25 -64 0
-601 25 64 0
601 -25 64 0
-601 -25 -64 0
25 -602 0
601 -602 0
-25 -601 602 0
557 -603 0
572 -603 0
-557 -572 603 0
-602 600 0
-603 600 0
602 603 -600 0
573 558 -605 0
-573 558 605 0
573 -558 605 0
-573 -558 -605 0
605 600 -596 0
-605 600 596 0
605 -600 596 0
-605 -600 -596 0
600 -606 0
605 -606 0
-600 -605 606 0
558 -607 0
573 -607 0
-558 -573 607 0
-606 604 0
-607 604 0
606 607 -604 0
574 559 -609 0
-574 559 609 0
574 -559 609 0
-574 -559 -609 0
609 604 -597 0
-609 604 597 0
609 -604 597 0
-609 -604 -597 0
604 -610 0
609 -610 0
-604 -609 610 0
559 -611 0
574 -611 0
-559 -574 611 0
-610 608 0
-611 608 0
610 611 -608 0
575 560 -613 0
-575 560 613 0
575 -560 613 0
-575 -560 -613 0
613 608 -598 0
-613 608 598 0
613 -608 598 0
-613 -608 -598 0
608 -614 0
613 -614 0
-608 -613 614 0
560 -615 0
575 -615 0
-560 -575 615 0
-614 612 0
-615 612 0
614 615 -612 0
25 561 -617 0
-25 561 617 0
25 -561 617 0
-25 -561 -617 0
617 612 -599 0
-617 612 599 0
617 -612 599 0
-617 -612 -599 0
612 -618 0
617 -618 0
-612 -617 618 0
561 -619 0
25 -619 0
-561 -25 619 0
-618 616 0
-619 616 0
618 619 -616 0
596 562 -625 0
-596 562 625 0
596 -562 625 0
-596 -562 -625 0
625 25 -80 0
-625 25 80 0
625 -25 80 0
-625 -25 -80 0
25 -626 0
625 -626 0
-25 -625 626 0
562 -627 0
596 -627 0
-562 -596 627 0
-626 624 0
-627 624 0
626 627 -624 0
597 563 -629 0
-597 563 629 0
597 -563 629 0
-597 -563 -629 0
629 624 -620 0
-629 624 620 0
629 -624 620 0
-629 -624 -620 0
624 -630 0
629 -630 0
-624 -629 630 0
563 -631 0
597 -631 0
-563 -597 631 0
-630 628 0
-631 628 0
630 631 -628 0
598 564 -633 0
-598 564 633 0
598 -564 633 0
-598 -564 -633 0
633 628 -621 0
-633 628 621 0
633 -628 621 0
-633 -628 -621 0
628 -634 0
633 -634 0
-628 -633 634 0
564 -635 0
598 -635 0
-564 -598 635 0
-634 632 0
-635 632 0
634 635 -632 0
599 565 -637 0
-599 565 637 0
599 -565 637 0
-599 -565 -637 0
637 632 -622 0
-637 632 622 0
637 -632 622 0
-637 -632 -622 0
632 -638 0
637 -638 0
-632 -637 638 0
565 -639 0
599 -639 0
-565 -599 639 0
-638 636 0
-639 636 0
638 639 -636 0
25 566 -641 0
-25 566 641 0
25 -566 641 0
-25 -566 -641 0
641 636 -623 0
-641 636 623 0
641 -636 623 0
-641 -636 -623 0
636 -642 0
641 -642 0
-636 -641 642 0
566 -643 0
25 -643 0
-566 -25 643 0
-642 640 0
-643 640 0
642 643 -640 0
620 567 -645 0
-620 567 645 0
620 -567 645 0
-620 -567 -645 0
645 25 -96 0
-645 25 96 0
645 -25 96 0
-645 -25 -96 0
25 -646 0
645 -646 0
-25 -645 646 0
567 -647 0
620 -647 0
-567 -620 647 0
-646 644 0
-647 644 0
646 647 -644 0
621 568 -649 0
-621 568 649 0
621 -568 649 0
-621 -568 -649 0
649 644 -112 0
-649 644 112 0
649 -644 112 0
-649 -644 -112 0
644 -650 0
649 -650 0
-644 -649 650 0
568 -651 0
621 -651 0
-568 -621 651 0
-650 648 0
-651 648 0
650 651 -648 0
622 569 -653 0
-622 569 653 0
622 -569 653 0
-622 -569 -653 0
653 648 -128 0
-653 648 128 0
653 -648 128 0
-653 -648 -128 0
648 -654 0
653 -654 0
-648 -653 654 0
569 -655 0
622 -655 0
-569 -622 655 0
-654 652 0
-655 652 0
654 655 -652 0
623 570 -657 0
-623 570 657 0
623 -570 657 0
-623 -570 -657 0
657 652 -144 0
-657 652 144 0
657 -652 144 0
-657 -652 -144 0
652 -658 0
657 -658 0
-652 -657 658 0
570 -659 0
623 -659 0
-570 -623 659 0
-658 656 0
-659 656 0
658 659 -656 0
25 571 -661 0
-25 571 661 0
25 -571 661 0
-25 -571 -661 0
661 656 -160 0
-661 656 160 0
661 -656 160 0
-661 -656 -160 0
656 -662 0
661 -662 0
-656 -661 662 0
571 -663 0
25 -663 0
-571 -25 663 0
-662 660 0
-663 660 0
662 663 -660 0
660 -176 0
-660 176 0
25 -145 0
-25 145 0
25 -161 0
-25 161 0
2 668 0
-2 -668 0
666 669 0
-666 -669 0
6 670 0
-6 -670 0
25 671 0
-25 -671 0
668 -672 0
25 -672 0
-668 -25 672 0
668 -673 0
6 -673 0
-668 -6 673 0
6 -674 0
25 -674 0
-6 -25 674 0
668 -675 0
6 -675 0
671 -675 0
669 -675 0
-668 -6 -671 -669 675 0
668 -676 0
670 -676 0
25 -676 0
669 -676 0
-668 -670 -25 -669 676 0
2 -677 0
6 -677 0
25 -677 0
-2 -6 -25 677 0
2 -678 0
670 -678 0
671 -678 0
-2 -670 -671 678 0
2 -679 0
666 -679 0
-2 -666 679 0
-672 667 0
-673 667 0
-674 667 0
672 673 674 -667 0
-675 664 0
-676 664 0
-677 664 0
-678 664 0
-679 664 0
675 676 677 678 679 -664 0
3 681 0
-3 -681 0
666 682 0
-666 -682 0
7 683 0
-7 -683 0
667 684 0
-667 -684 0
681 -685 0
667 -685 0
-681 -667 685 0
681 -686 0
7 -686 0
-681 -7 686 0
7 -687 0
667 -687 0
-7 -667 687 0
681 -688 0
7 -688 0
684 -688 0
682 -688 0
-681 -7 -684 -682 688 0
681 -689 0
683 -689 0
667 -689 0
682 -689 0
-681 -683 -667 -682 689 0
3 -690 0
7 -690 0
667 -690 0
-3 -7 -667 690 0
3 -691 0
683 -691 0
684 -691 0
-3 -683 -684 691 0
3 -692 0
666 -692 0
-3 -666 692 0
-685 680 0
-686 680 0
-687 680 0
685 686 687 -680 0
-688 665 0
-689 665 0
-690 665 0
-691 665 0
-692 665 0
688 689 690 691 692 -665 0
1 696 0
-1 -696 0
694 697 0
-694 -697 0
6 698 0
-6 -698 0
25 699 0
-25 -699 0
696 -700 0
25 -700 0
-696 -25 700 0
696 -701 0
6 -701 0
-696 -6 701 0
6 -702 0
25 -702 0
-6 -25 702 0
696 -703 0
6 -703 0
699 -703 0
697 -703 0
-696 -6 -699 -697 703 0
696 -704 0
698 -704 0
25 -704 0
697 -704 0
-696 -698 -25 -697 704 0
1 -705 0
6 -705 0
25 -705 0
-1 -6 -25 705 0
1 -706 0
698 -706 0
699 -706 0
-1 -698 -699 706 0
1 -707 0
694 -707 0
-1 -694 707 0
-700 695 0
-701 695 0
-702 695 0
700 701 702 -695 0
-703 113 0
-704 113 0
-705 113 0
-706 113 0
-707 113 0
703 704 705 706 707 -113 0
664 709 0
-664 -709 0
694 710 0
-694 -710 0
7 711 0
-7 -711 0
695 712 0
-695 -712 0
709 -713 0
695 -713 0
-709 -695 713 0
709 -714 0
7 -714 0
-709 -7 714 0
7 -715 0
695 -715 0
-7 -695 715 0
709 -716 0
7 -716 0
712 -716 0
710 -716 0
-709 -7 -712 -710 716 0
709 -717 0
711 -717 0
695 -717 0
710 -717 0
-709 -711 -695 -710 717 0
664 -718 0
7 -718 0
695 -718 0
-664 -7 -695 718 0
664 -719 0
711 -719 0
712 -719 0
-664 -711 -712 719 0
664 -720 0
694 -720 0
-664 -694 720 0
-713 708 0
-714 708 0
-715 708 0
713 714 715 -708 0
-716 129 0
-717 129 0
-718 129 0
-719 129 0
-720 129 0
716 717 718 719 720 -129 0
680 693 0
-680 -693 0
-4 49 0
-693 49 0
4 693 -49 0
49 666 0
-49 -666 0
708 721 0
-708 -721 0
-665 33 0
-721 33 0
665 721 -33 0
33 694 0
-33 -694 0
1 6 -723 0
-1 6 723 0
1 -6 723 0
-1 -6 -723 0
723 25 -34 0
-723 25 34 0
723 -25 34 0
-723 -25 -34 0
25 -724 0
723 -724 0
-25 -723 724 0
6 -725 0
1 -725 0
-6 -1 725 0
-724 722 0
-725 722 0
724 725 -722 0
2 7 -727 0
-2 7 727 0
2 -7 727 0
-2 -7 -727 0
727 722 -50 0
-727 722 50 0
727 -722 50 0
-727 -722 -50 0
722 -728 0
727 -728 0
-722 -727 728 0
7 -729 0
2 -729 0
-7 -2 729 0
-728 726 0
-729 726 0
728 729 -726 0
3 8 -731 0
-3 8 731 0
3 -8 731 0
-3 -8 -731 0
731 726 -66 0
-731 726 66 0
731 -726 66 0
-731 -726 -66 0
726 -732 0
731 -732 0
-726 -731 732 0
8 -733 0
3 -733 0
-8 -3 733 0
-732 730 0
-733 730 0
732 733 -730 0
4 9 -735 0
-4 9 735 0
4 -9 735 0
-4 -9 -735 0
735 730 -82 0
-735 730 82 0
735 -730 82 0
-735 -730 -82 0
730 -736 0
735 -736 0
-730 -735 736 0
9 -737 0
4 -737 0
-9 -4 737 0
-736 734 0
-737 734 0
736 737 -734 0
5 10 -738 0
-5 10 738 0
5 -10 738 0
-5 -10 -738 0
738 734 -98 0
-738 734 98 0
738 -734 98 0
-738 -734 -98 0
734 -739 0
738 -739 0
-734 -738 739 0
10 -740 0
5 -740 0
-10 -5 740 0
-739 114 0
-740 114 0
739 740 -114 0
6 741 -742 0
-6 741 742 0
6 -741 742 0
-6 -741 -742 0
7 741 -743 0
-7 741 743 0
7 -741 743 0
-7 -741 -743 0
8 741 -744 0
-8 741 744 0
8 -741 744 0
-8 -741 -744 0
9 741 -745 0
-9 741 745 0
9 -741 745 0
-9 -741 -745 0
10 741 -746 0
-10 741 746 0
10 -741 746 0
-10 -741 -746 0
1 742 -748 0
-1 742 748 0
1 -742 748 0
-1 -742 -748 0
748 741 -35 0
-748 741 35 0
748 -741 35 0
-748 -741 -35 0
741 -749 0
748 -749 0
-741 -748 749 0
742 -750 0
1 -750 0
-742 -1 750 0
-749 747 0
-750 747 0
749 750 -747 0
2 743 -752 0
-2 743 752 0
2 -743 752 0
-2 -743 -752 0
752 747 -51 0
-752 747 51 0
752 -747 51 0
-752 -747 -51 0
747 -753 0
752 -753 0
-747 -752 753 0
743 -754 0
2 -754 0
-743 -2 754 0
-753 751 0
-754 751 0
753 754 -751 0
3 744 -756 0
-3 744 756 0
3 -744 756 0
-3 -744 -756 0
756 751 -67 0
-756 751 67 0
756 -751 67 0
-756 -751 -67 0
751 -757 0
756 -757 0
-751 -756 757 0
744 -758 0
3 -758 0
-744 -3 758 0
-757 755 0
-758 755 0
757 758 -755 0
4 745 -760 0
-4 745 760 0
4 -745 760 0
-4 -745 -760 0
760 755 -83 0
-760 755 83 0
760 -755 83 0
-760 -755 -83 0
755 -761 0
760 -761 0
-755 -760 761 0
745 -762 0
4 -762 0
-745 -4 762 0
-761 759 0
-762 759 0
761 762 -759 0
5 746 -764 0
-5 746 764 0
5 -746 764 0
-5 -746 -764 0
764 759 -99 0
-764 759 99 0
764 -759 99 0
-764 -759 -99 0
759 -765 0
764 -765 0
-759 -764 765 0
746 -766 0
5 -766 0
-746 -5 766 0
-765 763 0
-766 763 0
765 766 -763 0
763 741 -115 0
-763 741 115 0
763 -741 115 0
-763 -741 -115 0
1 741 -768 0
-1 741 768 0
1 -741 768 0
-1 -741 -768 0
768 25 -36 0
-768 25 36 0
768 -25 36 0
-768 -25 -36 0
25 -769 0
768 -769 0
-25 -768 769 0
741 -770 0
1 -770 0
-741 -1 770 0
-769 767 0
-770 767 0
769 770 -767 0
2 25 -772 0
-2 25 772 0
2 -25 772 0
-2 -25 -772 0
772 767 -52 0
-772 767 52 0
772 -767 52 0
-772 -767 -52 0
767 -773 0
772 -773 0
-767 -772 773 0
25 -774 0
2 -774 0
-25 -2 774 0
-773 771 0
-774 771 0
773 774 -771 0
3 25 -776 0
-3 25 776 0
3 -25 776 0
-3 -25 -776 0
776 771 -68 0
-776 771 68 0
776 -771 68 0
-776 -771 -68 0
771 -777 0
776 -777 0
-771 -776 777 0
25 -778 0
3 -778 0
-25 -3 778 0
-777 775 0
-778 775 0
777 778 -775 0
4 25 -780 0
-4 25 780 0
4 -25 780 0
-4 -25 -780 0
780 775 -84 0
-780 775 84 0
780 -775 84 0
-780 -775 -84 0
775 -781 0
780 -781 0
-775 -780 781 0
25 -782 0
4 -782 0
-25 -4 782 0
-781 779 0
-782 779 0
781 782 -779 0
5 25 -783 0
-5 25 783 0
5 -25 783 0
-5 -25 -783 0
783 779 -100 0
-783 779 100 0
783 -779 100 0
-783 -779 -100 0
779 -784 0
783 -784 0
-779 -783 784 0
25 -785 0
5 -785 0
-25 -5 785 0
-784 116 0
-785 116 0
784 785 -116 0
741 741 -786 0
-741 741 786 0
741 -741 786 0
-741 -741 -786 0
25 741 -787 0
-25 741 787 0
25 -741 787 0
-25 -741 -787 0
25 741 -788 0
-25 741 788 0
25 -741 788 0
-25 -741 -788 0
25 741 -789 0
-25 741 789 0
25 -741 789 0
-25 -741 -789 0
25 741 -790 0
-25 741 790 0
25 -741 790 0
-25 -741 -790 0
1 786 -792 0
-1 786 792 0
1 -786 792 0
-1 -786 -792 0
792 741 -37 0
-792 741 37 0
792 -741 37 0
-792 -741 -37 0
741 -793 0
792 -793 0
-741 -792 793 0
786 -794 0
1 -794 0
-786 -1 794 0
-793 791 0
-794 791 0
793 794 -791 0
2 787 -796 0
-2 787 796 0
2 -787 796 0
-2 -787 -796 0
796 791 -53 0
-796 791 53 0
796 -791 53 0
-796 -791 -53 0
791 -797 0
796 -797 0
-791 -796 797 0
787 -798 0
2 -798 0
-787 -2 798 0
-797 795 0
-798 795 0
797 798 -795 0
3 788 -800 0
-3 788 800 0
3 -788 800 0
-3 -788 -800 0
800 795 -69 0
-800 795 69 0
800 -795 69 0
-800 -795 -69 0
795 -801 0
800 -801 0
-795 -800 801 0
788 -802 0
3 -802 0
-788 -3 802 0
-801 799 0
-802 799 0
801 802 -799 0
4 789 -804 0
-4 789 804 0
4 -789 804 0
-4 -789 -804 0
804 799 -85 0
-804 799 85 0
804 -799 85 0
-804 -799 -85 0
799 -805 0
804 -805 0
-799 -804 805 0
789 -806 0
4 -806 0
-789 -4 806 0
-805 803 0
-806 803 0
805 806 -803 0
5 790 -808 0
-5 790 808 0
5 -790 808 0
-5 -790 -808 0
808 803 -101 0
-808 803 101 0
808 -803 101 0
-808 -803 -101 0
803 -809 0
808 -809 0
-803 -808 809 0
790 -810 0
5 -810 0
-790 -5 810 0
-809 807 0
-810 807 0
809 810 -807 0
807 741 -117 0
-807 741 117 0
807 -741 117 0
-807 -741 -117 0
25 -107 0
-25 107 0
25 -123 0
-25 123 0
25 -139 0
-25 139 0
25 -155 0
-25 155 0
25 -171 0
-25 171 0
25 -108 0
-25 108 0
25 -124 0
-25 124 0
25 -140 0
-25 140 0
25 -156 0
-25 156 0
25 -172 0
-25 172 0
25 -109 0
-25 109 0
25 -125 0
-25 125 0
25 -141 0
-25 141 0
25 -157 0
-25 157 0
25 -173 0
-25 173 0
25 -110 0
-25 110 0
25 -126 0
-25 126 0
25 -142 0
-25 142 0
25 -158 0
-25 158 0
25 -174 0
-25 174 0
25 -31 0
-25 31 0
25 -47 0
-25 47 0
25 -63 0
-25 63 0
25 -79 0
-25 79 0
25 -95 0
-25 95 0
25 -111 0
-25 111 0
25 -127 0
-25 127 0
25 -143 0
-25 143 0
25 -159 0
-25 159 0
25 -175 0
-25 175 0
25 -65 0
-25 65 0
25 -81 0
-25 81 0
25 -97 0
-25 97 0
25 -130 0
-25 130 0
25 -146 0
-25 146 0
25 -162 0
-25 162 0
25 -178 0
-25 178 0
25 -131 0
-25 131 0
25 -147 0
-25 147 0
25 -163 0
-25 163 0
25 -179 0
-25 179 0
25 -132 0
-25 132 0
25 -148 0
-25 148 0
25 -164 0
-25 164 0
25 -180 0
-25 180 0
25 -133 0
-25 133 0
25 -149 0
-25 149 0
25 -165 0
-25 165 0
25 -181 0
-25 181 0
25 -118 0
-25 118 0
25 -134 0
-25 134 0
25 -150 0
-25 150 0
25 -166 0
-25 166 0
25 -182 0
-25 182 0
11 219 0
-11 -219 0
12 220 0
-12 -220 0
13 221 0
-13 -221 0
14 222 0
-14 -222 0
219 -187 0
220 -187 0
221 -187 0
222 -187 0
-219 -220 -221 -222 187 0
11 -188 0
220 -188 0
221 -188 0
222 -188 0
-11 -220 -221 -222 188 0
219 -189 0
12 -189 0
221 -189 0
222 -189 0
-219 -12 -221 -222 189 0
11 -190 0
12 -190 0
221 -190 0
222 -190 0
-11 -12 -221 -222 190 0
219 -191 0
220 -191 0
13 -191 0
222 -191 0
-219 -220 -13 -222 191 0
11 -192 0
220 -192 0
13 -192 0
222 -192 0
-11 -220 -13 -222 192 0
219 -193 0
12 -193 0
13 -193 0
222 -193 0
-219 -12 -13 -222 193 0
11 -194 0
12 -194 0
13 -194 0
222 -194 0
-11 -12 -13 -222 194 0
219 -195 0
220 -195 0
221 -195 0
14 -195 0
-219 -220 -221 -14 195 0
11 -196 0
220 -196 0
221 -196 0
14 -196 0
-11 -220 -221 -14 196 0
219 -197 0
12 -197 0
221 -197 0
14 -197 0
-219 -12 -221 -14 197 0
11 -198 0
12 -198 0
221 -198 0
14 -198 0
-11 -12 -221 -14 198 0
219 -199 0
220 -199 0
13 -199 0
14 -199 0
-219 -220 -13 -14 199 0
11 -200 0
220 -200 0
13 -200 0
14 -200 0
-11 -220 -13 -14 200 0
219 -201 0
12 -201 0
13 -201 0
14 -201 0
-219 -12 -13 -14 201 0
11 -202 0
12 -202 0
13 -202 0
14 -202 0
-11 -12 -13 -14 202 0
187 -203 0
27 -203 0
-187 -27 203 0
188 -204 0
28 -204 0
-188 -28 204 0
189 -205 0
29 -205 0
-189 -29 205 0
190 -206 0
30 -206 0
-190 -30 206 0
191 -207 0
31 -207 0
-191 -31 207 0
192 -208 0
32 -208 0
-192 -32 208 0
193 -209 0
33 -209 0
-193 -33 209 0
194 -210 0
34 -210 0
-194 -34 210 0
195 -211 0
35 -211 0
-195 -35 211 0
196 -212 0
36 -212 0
-196 -36 212 0
197 -213 0
37 -213 0
-197 -37 213 0
198 -214 0
38 -214 0
-198 -38 214 0
199 -215 0
39 -215 0
-199 -39 215 0
200 -216 0
40 -216 0
-200 -40 216 0
201 -217 0
41 -217 0
-201 -41 217 0
202 -218 0
42 -218 0
-202 -42 218 0
-203 15 0
-204 15 0
-205 15 0
-206 15 0
-207 15 0
-208 15 0
-209 15 0
-210 15 0
-211 15 0
-212 15 0
-213 15 0
-214 15 0
-215 15 0
-216 15 0
-217 15 0
-218 15 0
203 204 205 206 207 208 209 210 211 212 213 214 215 216 217 218 -15 0
11 255 0
-11 -255 0
12 256 0
-12 -256 0
13 257 0
-13 -257 0
14 258 0
-14 -258 0
255 -223 0
256 -223 0
257 -223 0
258 -223 0
-255 -256 -257 -258 223 0
11 -224 0
256 -224 0
257 -224 0
258 -224 0
-11 -256 -257 -258 224 0
255 -225 0
12 -225 0
257 -225 0
258 -225 0
-255 -12 -257 -258 225 0
11 -226 0
12 -226 0
257 -226 0
258 -226 0
-11 -12 -257 -258 226 0
255 -227 0
256 -227 0
13 -227 0
258 -227 0
-255 -256 -13 -258 227 0
11 -228 0
256 -228 0
13 -228 0
258 -228 0
-11 -256 -13 -258 228 0
255 -229 0
12 -229 0
13 -229 0
258 -229 0
-255 -12 -13 -258 229 0
11 -230 0
12 -230 0
13 -230 0
258 -230 0
-11 -12 -13 -258 230 0
255 -231 0
256 -231 0
257 -231 0
14 -231 0
-255 -256 -257 -14 231 0
11 -232 0
256 -232 0
257 -232 0
14 -232 0
-11 -256 -257 -14 232 0
255 -233 0
12 -233 0
257 -233 0
14 -233 0
-255 -12 -257 -14 233 0
11 -234 0
12 -234 0
257 -234 0
14 -234 0
-11 -12 -257 -14 234 0
255 -235 0
256 -235 0
13 -235 0
14 -235 0
-255 -256 -13 -14 235 0
11 -236 0
256 -236 0
13 -236 0
14 -236 0
-11 -256 -13 -14 236 0
255 -237 0
12 -237 0
13 -237 0
14 -237 0
-255 -12 -13 -14 237 0
11 -238 0
12 -238 0
13 -238 0
14 -238 0
-11 -12 -13 -14 238 0
223 -239 0
43 -239 0
-223 -43 239 0
224 -240 0
44 -240 0
-224 -44 240 0
225 -241 0
45 -241 0
-225 -45 241 0
226 -242 0
46 -242 0
-226 -46 242 0
227 -243 0
47 -243 0
-227 -47 243 0
228 -244 0
48 -244 0
-228 -48 244 0
229 -245 0
49 -245 0
-229 -49 245 0
230 -246 0
50 -246 0
-230 -50 246 0
231 -247 0
51 -247 0
-231 -51 247 0
232 -248 0
52 -248 0
-232 -52 248 0
233 -249 0
53 -249 0
-233 -53 249 0
234 -250 0
54 -250 0
-234 -54 250 0
235 -251 0
55 -251 0
-235 -55 251 0
236 -252 0
56 -252 0
-236 -56 252 0
237 -253 0
57 -253 0
-237 -57 253 0
238 -254 0
58 -254 0
-238 -58 254 0
-239 16 0
-240 16 0
-241 16 0
-242 16 0
-243 16 0
-244 16 0
-245 16 0
-246 16 0
-247 16 0
-248 16 0
-249 16 0
-250 16 0
-251 16 0
-252 16 0
-253 16 0
-254 16 0
239 240 241 242 243 244 245 246 247 248 249 250 251 252 253 254 -16 0
11 291 0
-11 -291 0
12 292 0
-12 -292 0
13 293 0
-13 -293 0
14 294 0
-14 -294 0
291 -259 0
292 -259 0
293 -259 0
294 -259 0
-291 -292 -293 -294 259 0
11 -260 0
292 -260 0
293 -260 0
294 -260 0
-11 -292 -293 -294 260 0
291 -261 0
12 -261 0
293 -261 0
294 -261 0
-291 -12 -293 -294 261 0
11 -262 0
12 -262 0
293 -262 0
294 -262 0
-11 -12 -293 -294 262 0
291 -263 0
292 -263 0
13 -263 0
294 -263 0
-291 -292 -13 -294 263 0
11 -264 0
292 -264 0
13 -264 0
294 -264 0
-11 -292 -13 -294 264 0
291 -265 0
12 -265 0
13 -265 0
294 -265 0
-291 -12 -13 -294 265 0
11 -266 0
12 -266 0
13 -266 0
294 -266 0
-11 -12 -13 -294 266 0
291 -267 0
292 -267 0
293 -267 0
14 -267 0
-291 -292 -293 -14 267 0
11 -268 0
292 -268 0
293 -268 0
14 -268 0
-11 -292 -293 -14 268 0
291 -269 0
12 -269 0
293 -269 0
14 -269 0
-291 -12 -293 -14 269 0
11 -270 0
12 -270 0
293 -270 0
14 -270 0
-11 -12 -293 -14 270 0
291 -271 0
292 -271 0
13 -271 0
14 -271 0
-291 -292 -13 -14 271 0
11 -272 0
292 -272 0
13 -272 0
14 -272 0
-11 -292 -13 -14 272 0
291 -273 0
12 -273 0
13 -273 0
14 -273 0
-291 -12 -13 -14 273 0
11 -274 0
12 -274 0
13 -274 0
14 -274 0
-11 -12 -13 -14 274 0
259 -275 0
59 -275 0
-259 -59 275 0
260 -276 0
60 -276 0
-260 -60 276 0
261 -277 0
61 -277 0
-261 -61 277 0
262 -278 0
62 -278 0
-262 -62 278 0
263 -279 0
63 -279 0
-263 -63 279 0
264 -280 0
64 -280 0
-264 -64 280 0
265 -281 0
65 -281 0
-265 -65 281 0
266 -282 0
66 -282 0
-266 -66 282 0
267 -283 0
67 -283 0
-267 -67 283 0
268 -284 0
68 -284 0
-268 -68 284 0
269 -285 0
69 -285 0
-269 -69 285 0
270 -286 0
70 -286 0
-270 -70 286 0
271 -287 0
71 -287 0
-271 -71 287 0
272 -288 0
72 -288 0
-272 -72 288 0
273 -289 0
73 -289 0
-273 -73 289 0
274 -290 0
74 -290 0
-274 -74 290 0
-275 17 0
-276 17 0
-277 17 0
-278 17 0
-279 17 0
-280 17 0
-281 17 0
-282 17 0
-283 17 0
-284 17 0
-285 17 0
-286 17 0
-287 17 0
-288 17 0
-289 17 0
-290 17 0
275 276 277 278 279 280 281 282 283 284 285 286 287 288 289 290 -17 0
11 327 0
-11 -327 0
12 328 0
-12 -328 0
13 329 0
-13 -329 0
14 330 0
-14 -330 0
327 -295 0
328 -295 0
329 -295 0
330 -295 0
-327 -328 -329 -330 295 0
11 -296 0
328 -296 0
329 -296 0
330 -296 0
-11 -328 -329 -330 296 0
327 -297 0
12 -297 0
329 -297 0
330 -297 0
-327 -12 -329 -330 297 0
11 -298 0
12 -298 0
329 -298 0
330 -298 0
-11 -12 -329 -330 298 0
327 -299 0
328 -299 0
13 -299 0
330 -299 0
-327 -328 -13 -330 299 0
11 -300 0
328 -300 0
13 -300 0
330 -300 0
-11 -328 -13 -330 300 0
327 -301 0
12 -301 0
13 -301 0
330 -301 0
-327 -12 -13 -330 301 0
11 -302 0
12 -302 0
13 -302 0
330 -302 0
-11 -12 -13 -330 302 0
327 -303 0
328 -303 0
329 -303 0
14 -303 0
-327 -328 -329 -14 303 0
11 -304 0
328 -304 0
329 -304 0
14 -304 0
-11 -328 -329 -14 304 0
327 -305 0
12 -305 0
329 -305 0
14 -305 0
-327 -12 -329 -14 305 0
11 -306 0
12 -306 0
329 -306 0
14 -306 0
-11 -12 -329 -14 306 0
327 -307 0
328 -307 0
13 -307 0
14 -307 0
-327 -328 -13 -14 307 0
11 -308 0
328 -308 0
13 -308 0
14 -308 0
-11 -328 -13 -14 308 0
327 -309 0
12 -309 0
13 -309 0
14 -309 0
-327 -12 -13 -14 309 0
11 -310 0
12 -310 0
13 -310 0
14 -310 0
-11 -12 -13 -14 310 0
295 -311 0
75 -311 0
-295 -75 311 0
296 -312 0
76 -312 0
-296 -76 312 0
297 -313 0
77 -313 0
-297 -77 313 0
298 -314 0
78 -314 0
-298 -78 314 0
299 -315 0
79 -315 0
-299 -79 315 0
300 -316 0
80 -316 0
-300 -80 316 0
301 -317 0
81 -317 0
-301 -81 317 0
302 -318 0
82 -318 0
-302 -82 318 0
303 -319 0
83 -319 0
-303 -83 319 0
304 -320 0
84 -320 0
-304 -84 320 0
305 -321 0
85 -321 0
-305 -85 321 0
306 -322 0
86 -322 0
-306 -86 322 0
307 -323 0
87 -323 0
-307 -87 323 0
308 -324 0
88 -324 0
-308 -88 324 0
309 -325 0
89 -325 0
-309 -89 325 0
310 -326 0
90 -326 0
-310 -90 326 0
-311 18 0
-312 18 0
-313 18 0
-314 18 0
-315 18 0
-316 18 0
-317 18 0
-318 18 0
-319 18 0
-320 18 0
-321 18 0
-322 18 0
-323 18 0
-324 18 0
-325 18 0
-326 18 0
311 312 313 314 315 316 317 318 319 320 321 322 323 324 325 326 -18 0
11 363 0
-11 -363 0
12 364 0
-12 -364 0
13 365 0
-13 -365 0
14 366 0
-14 -366 0
363 -331 0
364 -331 0
365 -331 0
366 -331 0
-363 -364 -365 -366 331 0
11 -332 0
364 -332 0
365 -332 0
366 -332 0
-11 -364 -365 -366 332 0
363 -333 0
12 -333 0
365 -333 0
366 -333 0
-363 -12 -365 -366 333 0
11 -334 0
12 -334 0
365 -334 0
366 -334 0
-11 -12 -365 -366 334 0
363 -335 0
364 -335 0
13 -335 0
366 -335 0
-363 -364 -13 -366 335 0
11 -336 0
364 -336 0
13 -336 0
366 -336 0
-11 -364 -13 -366 336 0
363 -337 0
12 -337 0
13 -337 0
366 -337 0
-363 -12 -13 -366 337 0
11 -338 0
12 -338 0
13 -338 0
366 -338 0
-11 -12 -13 -366 338 0
363 -339 0
364 -339 0
365 -339 0
14 -339 0
-363 -364 -365 -14 339 0
11 -340 0
364 -340 0
365 -340 0
14 -340 0
-11 -364 -365 -14 340 0
363 -341 0
12 -341 0
365 -341 0
14 -341 0
-363 -12 -365 -14 341 0
11 -342 0
12 -342 0
365 -342 0
14 -342 0
-11 -12 -365 -14 342 0
363 -343 0
364 -343 0
13 -343 0
14 -343 0
-363 -364 -13 -14 343 0
11 -344 0
364 -344 0
13 -344 0
14 -344 0
-11 -364 -13 -14 344 0
363 -345 0
12 -345 0
13 -345 0
14 -345 0
-363 -12 -13 -14 345 0
11 -346 0
12 -346 0
13 -346 0
14 -346 0
-11 -12 -13 -14 346 0
331 -347 0
91 -347 0
-331 -91 347 0
332 -348 0
92 -348 0
-332 -92 348 0
333 -349 0
93 -349 0
-333 -93 349 0
334 -350 0
94 -350 0
-334 -94 350 0
335 -351 0
95 -351 0
-335 -95 351 0
336 -352 0
96 -352 0
-336 -96 352 0
337 -353 0
97 -353 0
-337 -97 353 0
338 -354 0
98 -354 0
-338 -98 354 0
339 -355 0
99 -355 0
-339 -99 355 0
340 -356 0
100 -356 0
-340 -100 356 0
341 -357 0
101 -357 0
-341 -101 357 0
342 -358 0
102 -358 0
-342 -102 358 0
343 -359 0
103 -359 0
-343 -103 359 0
344 -360 0
104 -360 0
-344 -104 360 0
345 -361 0
105 -361 0
-345 -105 361 0
346 -362 0
106 -362 0
-346 -106 362 0
-347 19 0
-348 19 0
-349 19 0
-350 19 0
-351 19 0
-352 19 0
-353 19 0
-354 19 0
-355 19 0
-356 19 0
-357 19 0
-358 19 0
-359 19 0
-360 19 0
-361 19 0
-362 19 0
347 348 349 350 351 352 353 354 355 356 357 358 359 360 361 362 -19 0
11 399 0
-11 -399 0
12 400 0
-12 -400 0
13 401 0
-13 -401 0
14 402 0
-14 -402 0
399 -367 0
400 -367 0
401 -367 0
402 -367 0
-399 -400 -401 -402 367 0
11 -368 0
400 -368 0
401 -368 0
402 -368 0
-11 -400 -401 -402 368 0
399 -369 0
12 -369 0
401 -369 0
402 -369 0
-399 -12 -401 -402 369 0
11 -370 0
12 -370 0
401 -370 0
402 -370 0
-11 -12 -401 -402 370 0
399 -371 0
400 -371 0
13 -371 0
402 -371 0
-399 -400 -13 -402 371 0
11 -372 0
400 -372 0
13 -372 0
402 -372 0
-11 -400 -13 -402 372 0
399 -373 0
12 -373 0
13 -373 0
402 -373 0
-399 -12 -13 -402 373 0
11 -374 0
12 -374 0
13 -374 0
402 -374 0
-11 -12 -13 -402 374 0
399 -375 0
400 -375 0
401 -375 0
14 -375 0
-399 -400 -401 -14 375 0
11 -376 0
400 -376 0
401 -376 0
14 -376 0
-11 -400 -401 -14 376 0
399 -377 0
12 -377 0
401 -377 0
14 -377 0
-399 -12 -401 -14 377 0
11 -378 0
12 -378 0
401 -378 0
14 -378 0
-11 -12 -401 -14 378 0
399 -379 0
400 -379 0
13 -379 0
14 -379 0
-399 -400 -13 -14 379 0
11 -380 0
400 -380 0
13 -380 0
14 -380 0
-11 -400 -13 -14 380 0
399 -381 0
12 -381 0
13 -381 0
14 -381 0
-399 -12 -13 -14 381 0
11 -382 0
12 -382 0
13 -382 0
14 -382 0
-11 -12 -13 -14 382 0
367 -383 0
107 -383 0
-367 -107 383 0
368 -384 0
108 -384 0
-368 -108 384 0
369 -385 0
109 -385 0
-369 -109 385 0
370 -386 0
110 -386 0
-370 -110 386 0
371 -387 0
111 -387 0
-371 -111 387 0
372 -388 0
112 -388 0
-372 -112 388 0
373 -389 0
113 -389 0
-373 -113 389 0
374 -390 0
114 -390 0
-374 -114 390 0
375 -391 0
115 -391 0
-375 -115 391 0
376 -392 0
116 -392 0
-376 -116 392 0
377 -393 0
117 -393 0
-377 -117 393 0
378 -394 0
118 -394 0
-378 -118 394 0
379 -395 0
119 -395 0
-379 -119 395 0
380 -396 0
120 -396 0
-380 -120 396 0
381 -397 0
121 -397 0
-381 -121 397 0
382 -398 0
122 -398 0
-382 -122 398 0
-383 20 0
-384 20 0
-385 20 0
-386 20 0
-387 20 0
-388 20 0
-389 20 0
-390 20 0
-391 20 0
-392 20 0
-393 20 0
-394 20 0
-395 20 0
-396 20 0
-397 20 0
-398 20 0
383 384 385 386 387 388 389 390 391 392 393 394 395 396 397 398 -20 0
11 435 0
-11 -435 0
12 436 0
-12 -436 0
13 437 0
-13 -437 0
14 438 0
-14 -438 0
435 -403 0
436 -403 0
437 -403 0
438 -403 0
-435 -436 -437 -438 403 0
11 -404 0
436 -404 0
437 -404 0
438 -404 0
-11 -436 -437 -438 404 0
435 -405 0
12 -405 0
437 -405 0
438 -405 0
-435 -12 -437 -438 405 0
11 -406 0
12 -406 0
437 -406 0
438 -406 0
-11 -12 -437 -438 406 0
435 -407 0
436 -407 0
13 -407 0
438 -407 0
-435 -436 -13 -438 407 0
11 -408 0
436 -408 0
13 -408 0
438 -408 0
-11 -436 -13 -438 408 0
435 -409 0
12 -409 0
13 -409 0
438 -409 0
-435 -12 -13 -438 409 0
11 -410 0
12 -410 0
13 -410 0
438 -410 0
-11 -12 -13 -438 410 0
435 -411 0
436 -411 0
437 -411 0
14 -411 0
-435 -436 -437 -14 411 0
11 -412 0
436 -412 0
437 -412 0
14 -412 0
-11 -436 -437 -14 412 0
435 -413 0
12 -413 0
437 -413 0
14 -413 0
-435 -12 -437 -14 413 0
11 -414 0
12 -414 0
437 -414 0
14 -414 0
-11 -12 -437 -14 414 0
435 -415 0
436 -415 0
13 -415 0
14 -415 0
-435 -436 -13 -14 415 0
11 -416 0
436 -416 0
13 -416 0
14 -416 0
-11 -436 -13 -14 416 0
435 -417 0
12 -417 0
13 -417 0
14 -417 0
-435 -12 -13 -14 417 0
11 -418 0
12 -418 0
13 -418 0
14 -418 0
-11 -12 -13 -14 418 0
403 -419 0
123 -419 0
-403 -123 419 0
404 -420 0
124 -420 0
-404 -124 420 0
405 -421 0
125 -421 0
-405 -125 421 0
406 -422 0
126 -422 0
-406 -126 422 0
407 -423 0
127 -423 0
-407 -127 423 0
408 -424 0
128 -424 0
-408 -128 424 0
409 -425 0
129 -425 0
-409 -129 425 0
410 -426 0
130 -426 0
-410 -130 426 0
411 -427 0
131 -427 0
-411 -131 427 0
412 -428 0
132 -428 0
-412 -132 428 0
413 -429 0
133 -429 0
-413 -133 429 0
414 -430 0
134 -430 0
-414 -134 430 0
415 -431 0
135 -431 0
-415 -135 431 0
416 -432 0
136 -432 0
-416 -136 432 0
417 -433 0
137 -433 0
-417 -137 433 0
418 -434 0
138 -434 0
-418 -138 434 0
-419 21 0
-420 21 0
-421 21 0
-422 21 0
-423 21 0
-424 21 0
-425 21 0
-426 21 0
-427 21 0
-428 21 0
-429 21 0
-430 21 0
-431 21 0
-432 21 0
-433 21 0
-434 21 0
419 420 421 422 423 424 425 426 427 428 429 430 431 432 433 434 -21 0
11 471 0
-11 -471 0
12 472 0
-12 -472 0
13 473 0
-13 -473 0
14 474 0
-14 -474 0
471 -439 0
472 -439 0
473 -439 0
474 -439 0
-471 -472 -473 -474 439 0
11 -440 0
472 -440 0
473 -440 0
474 -440 0
-11 -472 -473 -474 440 0
471 -441 0
12 -441 0
473 -441 0
474 -441 0
-471 -12 -473 -474 441 0
11 -442 0
12 -442 0
473 -442 0
474 -442 0
-11 -12 -473 -474 442 0
471 -443 0
472 -443 0
13 -443 0
474 -443 0
-471 -472 -13 -474 443 0
11 -444 0
472 -444 0
13 -444 0
474 -444 0
-11 -472 -13 -474 444 0
471 -445 0
12 -445 0
13 -445 0
474 -445 0
-471 -12 -13 -474 445 0
11 -446 0
12 -446 0
13 -446 0
474 -446 0
-11 -12 -13 -474 446 0
471 -447 0
472 -447 0
473 -447 0
14 -447 0
-471 -472 -473 -14 447 0
11 -448 0
472 -448 0
473 -448 0
14 -448 0
-11 -472 -473 -14 448 0
471 -449 0
12 -449 0
473 -449 0
14 -449 0
-471 -12 -473 -14 449 0
11 -450 0
12 -450 0
473 -450 0
14 -450 0
-11 -12 -473 -14 450 0
471 -451 0
472 -451 0
13 -451 0
14 -451 0
-471 -472 -13 -14 451 0
11 -452 0
472 -452 0
13 -452 0
14 -452 0
-11 -472 -13 -14 452 0
471 -453 0
12 -453 0
13 -453 0
14 -453 0
-471 -12 -13 -14 453 0
11 -454 0
12 -454 0
13 -454 0
14 -454 0
-11 -12 -13 -14 454 0
439 -455 0
139 -455 0
-439 -139 455 0
440 -456 0
140 -456 0
-440 -140 456 0
441 -457 0
141 -457 0
-441 -141 457 0
442 -458 0
142 -458 0
-442 -142 458 0
443 -459 0
143 -459 0
-443 -143 459 0
444 -460 0
144 -460 0
-444 -144 460 0
445 -461 0
145 -461 0
-445 -145 461 0
446 -462 0
146 -462 0
-446 -146 462 0
447 -463 0
147 -463 0
-447 -147 463 0
448 -464 0
148 -464 0
-448 -148 464 0
449 -465 0
149 -465 0
-449 -149 465 0
450 -466 0
150 -466 0
-450 -150 466 0
451 -467 0
151 -467 0
-451 -151 467 0
452 -468 0
152 -468 0
-452 -152 468 0
453 -469 0
153 -469 0
-453 -153 469 0
454 -470 0
154 -470 0
-454 -154 470 0
-455 22 0
-456 22 0
-457 22 0
-458 22 0
-459 22 0
-460 22 0
-461 22 0
-462 22 0
-463 22 0
-464 22 0
-465 22 0
-466 22 0
-467 22 0
-468 22 0
-469 22 0
-470 22 0
455 456 457 458 459 460 461 462 463 464 465 466 467 468 469 470 -22 0
11 507 0
-11 -507 0
12 508 0
-12 -508 0
13 509 0
-13 -509 0
14 510 0
-14 -510 0
507 -475 0
508 -475 0
509 -475 0
510 -475 0
-507 -508 -509 -510 475 0
11 -476 0
508 -476 0
509 -476 0
510 -476 0
-11 -508 -509 -510 476 0
507 -477 0
12 -477 0
509 -477 0
510 -477 0
-507 -12 -509 -510 477 0
11 -478 0
12 -478 0
509 -478 0
510 -478 0
-11 -12 -509 -510 478 0
507 -479 0
508 -479 0
13 -479 0
510 -479 0
-507 -508 -13 -510 479 0
11 -480 0
508 -480 0
13 -480 0
510 -480 0
-11 -508 -13 -510 480 0
507 -481 0
12 -481 0
13 -481 0
510 -481 0
-507 -12 -13 -510 481 0
11 -482 0
12 -482 0
13 -482 0
510 -482 0
-11 -12 -13 -510 482 0
507 -483 0
508 -483 0
509 -483 0
14 -483 0
-507 -508 -509 -14 483 0
11 -484 0
508 -484 0
509 -484 0
14 -484 0
-11 -508 -509 -14 484 0
507 -485 0
12 -485 0
509 -485 0
14 -485 0
-507 -12 -509 -14 485 0
11 -486 0
12 -486 0
509 -486 0
14 -486 0
-11 -12 -509 -14 486 0
507 -487 0
508 -487 0
13 -487 0
14 -487 0
-507 -508 -13 -14 487 0
11 -488 0
508 -488 0
13 -488 0
14 -488 0
-11 -508 -13 -14 488 0
507 -489 0
12 -489 0
13 -489 0
14 -489 0
-507 -12 -13 -14 489 0
11 -490 0
12 -490 0
13 -490 0
14 -490 0
-11 -12 -13 -14 490 0
475 -491 0
155 -491 0
-475 -155 491 0
476 -492 0
156 -492 0
-476 -156 492 0
477 -493 0
157 -493 0
-477 -157 493 0
478 -494 0
158 -494 0
-478 -158 494 0
479 -495 0
159 -495 0
-479 -159 495 0
480 -496 0
160 -496 0
-480 -160 496 0
481 -497 0
161 -497 0
-481 -161 497 0
482 -498 0
162 -498 0
-482 -162 498 0
483 -499 0
163 -499 0
-483 -163 499 0
484 -500 0
164 -500 0
-484 -164 500 0
485 -501 0
165 -501 0
-485 -165 501 0
486 -502 0
166 -502 0
-486 -166 502 0
487 -503 0
167 -503 0
-487 -167 503 0
488 -504 0
168 -504 0
-488 -168 504 0
489 -505 0
169 -505 0
-489 -169 505 0
490 -506 0
170 -506 0
-490 -170 506 0
-491 23 0
-492 23 0
-493 23 0
-494 23 0
-495 23 0
-496 23 0
-497 23 0
-498 23 0
-499 23 0
-500 23 0
-501 23 0
-502 23 0
-503 23 0
-504 23 0
-505 23 0
-506 23 0
491 492 493 494 495 496 497 498 499 500 501 502 503 504 505 506 -23 0
11 543 0
-11 -543 0
12 544 0
-12 -544 0
13 545 0
-13 -545 0
14 546 0
-14 -546 0
543 -511 0
544 -511 0
545 -511 0
546 -511 0
-543 -544 -545 -546 511 0
11 -512 0
544 -512 0
545 -512 0
546 -512 0
-11 -544 -545 -546 512 0
543 -513 0
12 -513 0
545 -513 0
546 -513 0
-543 -12 -545 -546 513 0
11 -514 0
12 -514 0
545 -514 0
546 -514 0
-11 -12 -545 -546 514 0
543 -515 0
544 -515 0
13 -515 0
546 -515 0
-543 -544 -13 -546 515 0
11 -516 0
544 -516 0
13 -516 0
546 -516 0
-11 -544 -13 -546 516 0
543 -517 0
12 -517 0
13 -517 0
546 -517 0
-543 -12 -13 -546 517 0
11 -518 0
12 -518 0
13 -518 0
546 -518 0
-11 -12 -13 -546 518 0
543 -519 0
544 -519 0
545 -519 0
14 -519 0
-543 -544 -545 -14 519 0
11 -520 0
544 -520 0
545 -520 0
14 -520 0
-11 -544 -545 -14 520 0
543 -521 0
12 -521 0
545 -521 0
14 -521 0
-543 -12 -545 -14 521 0
11 -522 0
12 -522 0
545 -522 0
14 -522 0
-11 -12 -545 -14 522 0
543 -523 0
544 -523 0
13 -523 0
14 -523 0
-543 -544 -13 -14 523 0
11 -524 0
544 -524 0
13 -524 0
14 -524 0
-11 -544 -13 -14 524 0
543 -525 0
12 -525 0
13 -525 0
14 -525 0
-543 -12 -13 -14 525 0
11 -526 0
12 -526 0
13 -526 0
14 -526 0
-11 -12 -13 -14 526 0
511 -527 0
171 -527 0
-511 -171 527 0
512 -528 0
172 -528 0
-512 -172 528 0
513 -529 0
173 -529 0
-513 -173 529 0
514 -530 0
174 -530 0
-514 -174 530 0
515 -531 0
175 -531 0
-515 -175 531 0
516 -532 0
176 -532 0
-516 -176 532 0
517 -533 0
177 -533 0
-517 -177 533 0
518 -534 0
178 -534 0
-518 -178 534 0
519 -535 0
179 -535 0
-519 -179 535 0
520 -536 0
180 -536 0
-520 -180 536 0
521 -537 0
181 -537 0
-521 -181 537 0
522 -538 0
182 -538 0
-522 -182 538 0
523 -539 0
183 -539 0
-523 -183 539 0
524 -540 0
184 -540 0
-524 -184 540 0
525 -541 0
185 -541 0
-525 -185 541 0
526 -542 0
186 -542 0
-526 -186 542 0
-527 24 0
-528 24 0
-529 24 0
-530 24 0
-531 24 0
-532 24 0
-533 24 0
-534 24 0
-535 24 0
-536 24 0
-537 24 0
-538 24 0
-539 24 0
-540 24 0
-541 24 0
-542 24 0
527 528 529 530 531 532 533 534 535 536 537 538 539 540 541 542 -24 0
